adpp_gurobi/instances/type2/ngcutfs2_1_adpp.txt
40
2	2
1	1	0	4	81
1	1	0	4	6
1	1	0	4	54
1	1	0	4	541
1	1	0	4	20
1	1	0	4	26
1	1	0	4	32
1	1	0	4	123
1	1	0	4	174
1	1	0	4	21
1	1	0	4	6
1	1	0	4	11
1	1	0	4	440
1	1	0	4	347
1	1	0	4	67
1	1	0	4	29
1	1	0	4	48
1	1	0	4	16
1	1	0	4	40
1	1	0	4	29
1	1	0	4	26
2	1	0	4	282
1	1	0	4	117
1	1	0	4	118
1	1	0	4	13
1	1	0	4	31
1	1	0	4	208
1	1	0	4	118
1	1	0	4	8
1	1	0	4	92
1	1	0	4	94
1	1	0	4	3
1	1	0	4	39
1	1	0	4	53
1	1	0	4	14
1	1	0	4	130
1	1	0	4	89
1	1	0	4	9
1	1	0	4	11
1	1	0	4	6
