adpp_gurobi/instances/type2/ngcutfs2_1_adpp.txt.out
Academic license - for non-commercial use only
Optimize a model with 89 rows, 158 columns and 476 nonzeros
Variable types: 0 continuous, 158 integer (158 binary)
Coefficient statistics:
  Matrix range     [1e+00, 1e+00]
  Objective range  [2e+00, 5e+02]
  Bounds range     [1e+00, 1e+00]
  RHS range        [1e+00, 4e+00]
Found heuristic solution: objective 272.6541000
Presolve removed 89 rows and 158 columns
Presolve time: 0.00s
Presolve: All rows and columns removed

Explored 0 nodes (0 simplex iterations) in 0.00 seconds
Thread count was 1 (of 8 available processors)

Solution count 2: 1821.06 272.654 

Optimal solution found (tolerance 1.00e-04)
Best objective 1.821060100000e+03, best bound 1.821060100000e+03, gap 0.0000%
Obj: 1821.06
